Route #1: 19 54 29 30 2 34 20
Route #2: 5 45 27 59 24 8 13
Route #3: 26 25 60 61 7
Route #4: 49 36 48 3 41 42 16
Route #5: 9 38 31 43 46 1 18 52
Route #6: 10 39 23 4 47 62 57 51 35
Route #7: 12 6 37 17 50 53
Route #8: 56 15 44 33 11
Route #9: 21 40 14 58 32 55 22 28
Cost 1618
Time 0.116185
